p cnf 14 23
-14 11 7 0
14 -11 -3 0
14 -10 -9 0
14 10 -9 0
14 6 -1 0
-13 11 -7 0
-13 9 -2 0
13 -8 -7 0
12 -9 4 0
-12 -8 6 0
-11 -10 6 0
-11 9 2 0
11 -8 -2 0
-10 -8 5 0
-10 -7 6 0
-10 -7 5 0
10 6 3 0
9 5 3 0
9 -5 1 0
-9 3 -2 0
-8 7 -5 0
-8 -6 4 0
5 4 -2 0
